53562 62415
46269 27199
30348 41865
44581 50569
28279 2011
32443 31758
27327 13729
46892 10651
51942 27574
33982 40569
41445 37228
23143 29889
15011 20367
6323 14700
1136 56705
53343 7247
30289 34672
17290 9855
28586 63125
47632 413
49622 18120
11405 12694
31018 19939
14677 50520
1956 48253
39340 17902
48719 48787
7970 19355
42072 4680
30052 25299
33672 11851
56409 55506
23766 4453
40578 8928
7824 30080
13249 33944
45215 50278
53827 58957
10793 51408
34144 4887
39735 13901
43760 51930
33250 12690
37041 7394
13394 65219
18201 10856
30462 48634
42047 1682
53059 42786
50855 30711
36459 18245
12014 16109
57264 45774
61237 32291
60128 5413
33288 20327
36473 26952
46272 60113
29320 5688
60108 1240
28677 43008
20013 32727
10776 46372
15234 12131
14413 10330
10338 23110
61922 30103
28752 90
21647 9913
